10J3M/DAT/10J3MNNA-11.dat
10 3
29.92 895.2064
29.5107 870.8814
32.2728 1041.5336
28.5846 817.0794
30.7393 944.9046
29.2118 853.3293
24.9598 622.9916
36.2448 1313.6855
29.6612 879.7868
17.7321 314.4274
8553.826