10J3M/SOL/10J3MNNA-11.sol
solution status: optimal solution found
objective value:                     96.2790333333333
x#1#2                                               1 	(obj:0)
x#2#1                                0.84723620020309 	(obj:0)
x#2#2                                0.15276379979691 	(obj:0)
x#3#3                                               1 	(obj:0)
x#4#1                                               1 	(obj:0)
x#5#2                              0.0968749017273218 	(obj:0)
x#5#3                               0.903125098272678 	(obj:0)
x#6#2                                               1 	(obj:0)
x#7#1                                               1 	(obj:0)
x#8#3                                               1 	(obj:0)
x#9#2                                               1 	(obj:0)
x#10#1                                              1 	(obj:0)
z                                    96.2790333333333 	(obj:1)
